63
1 0 8
2 0 47
2 1 53
3 0 40
3 1 23
3 2 20
4 0 51
4 1 52
4 2 43
4 3 51
5 0 7
5 1 19
5 2 40
5 3 11
5 4 27
6 0 47
6 1 34
6 2 48
6 3 31
6 4 42
6 5 5
7 0 40
7 1 34
7 2 38
7 3 40
7 4 40
7 5 22
7 6 14
8 0 25
8 1 39
8 2 35
8 3 6
8 4 3
8 5 45
8 6 29
8 7 52
9 0 2
9 1 52
9 2 1
9 3 13
9 4 23
9 5 30
9 6 17
9 7 5
9 8 49
10 0 53
10 1 21
10 2 12
10 3 28
10 4 48
10 5 1
10 6 36
10 7 9
10 8 34
10 9 37
11 0 27
11 1 47
11 2 9
11 3 35
11 4 48
11 5 52
11 6 51
11 7 38
11 8 11
11 9 31
11 10 24
12 0 30
12 1 12
12 2 3
12 3 26
12 4 45
12 5 12
12 6 7
12 7 26
12 8 14
12 9 47
12 10 15
12 11 35
13 0 15
13 1 9
13 2 11
13 3 2
13 4 15
13 5 21
13 6 16
13 7 24
13 8 21
13 9 26
13 10 17
13 11 40
13 12 8
14 0 9
14 1 36
14 2 27
14 3 35
14 4 1
14 5 18
14 6 33
14 7 14
14 8 16
14 9 46
14 10 3
14 11 29
14 12 42
14 13 13
15 0 42
15 1 7
15 2 32
15 3 38
15 4 38
15 5 4
15 6 25
15 7 21
15 8 6
15 9 15
15 10 23
15 11 43
15 12 49
15 13 24
15 14 49
16 0 10
16 1 44
16 2 34
16 3 4
16 4 23
16 5 3
16 6 9
16 7 17
16 8 12
16 9 10
16 10 34
16 11 47
16 12 13
16 13 32
16 14 13
16 15 28
17 0 45
17 1 13
17 2 36
17 3 45
17 4 30
17 5 38
17 6 5
17 7 50
17 8 11
17 9 15
17 10 20
17 11 1
17 12 28
17 13 42
17 14 15
17 15 33
17 16 34
18 0 42
18 1 10
18 2 16
18 3 37
18 4 34
18 5 51
18 6 51
18 7 34
18 8 46
18 9 38
18 10 10
18 11 36
18 12 28
18 13 26
18 14 25
18 15 8
18 16 3
18 17 28
19 0 43
19 1 52
19 2 46
19 3 18
19 4 17
19 5 20
19 6 50
19 7 34
19 8 47
19 9 5
19 10 43
19 11 15
19 12 41
19 13 52
19 14 50
19 15 18
19 16 53
19 17 43
19 18 19
20 0 7
20 1 27
20 2 40
20 3 46
20 4 48
20 5 48
20 6 29
20 7 26
20 8 21
20 9 49
20 10 37
20 11 39
20 12 27
20 13 3
20 14 4
20 15 45
20 16 38
20 17 3
20 18 33
20 19 19
21 0 6
21 1 2
21 2 15
21 3 17
21 4 9
21 5 38
21 6 4
21 7 8
21 8 26
21 9 27
21 10 15
21 11 9
21 12 15
21 13 11
21 14 45
21 15 40
21 16 12
21 17 44
21 18 28
21 19 14
21 20 1
22 0 8
22 1 37
22 2 43
22 3 46
22 4 10
22 5 16
22 6 33
22 7 22
22 8 1
22 9 45
22 10 31
22 11 6
22 12 31
22 13 11
22 14 8
22 15 9
22 16 35
22 17 31
22 18 43
22 19 5
22 20 13
22 21 4
23 0 39
23 1 50
23 2 30
23 3 29
23 4 15
23 5 32
23 6 41
23 7 43
23 8 24
23 9 32
23 10 16
23 11 16
23 12 36
23 13 31
23 14 41
23 15 38
23 16 10
23 17 5
23 18 21
23 19 25
23 20 11
23 21 28
23 22 24
24 0 36
24 1 21
24 2 19
24 3 29
24 4 9
24 5 25
24 6 52
24 7 19
24 8 46
24 9 6
24 10 42
24 11 17
24 12 7
24 13 1
24 14 10
24 15 12
24 16 20
24 17 15
24 18 47
24 19 2
24 20 45
24 21 14
24 22 36
24 23 4
25 0 12
25 1 21
25 2 14
25 3 19
25 4 36
25 5 4
25 6 2
25 7 11
25 8 23
25 9 7
25 10 49
25 11 42
25 12 50
25 13 37
25 14 34
25 15 33
25 16 20
25 17 31
25 18 50
25 19 3
25 20 42
25 21 16
25 22 30
25 23 15
25 24 15
26 0 23
26 1 18
26 2 24
26 3 10
26 4 50
26 5 23
26 6 41
26 7 48
26 8 36
26 9 25
26 10 47
26 11 40
26 12 8
26 13 25
26 14 42
26 15 23
26 16 15
26 17 25
26 18 2
26 19 31
26 20 44
26 21 27
26 22 6
26 23 33
26 24 23
26 25 11
27 0 6
27 1 50
27 2 48
27 3 4
27 4 14
27 5 51
27 6 39
27 7 26
27 8 39
27 9 51
27 10 12
27 11 38
27 12 44
27 13 13
27 14 45
27 15 34
27 16 32
27 17 17
27 18 11
27 19 1
27 20 22
27 21 8
27 22 17
27 23 13
27 24 2
27 25 39
27 26 39
28 0 9
28 1 4
28 2 9
28 3 40
28 4 23
28 5 15
28 6 24
28 7 45
28 8 7
28 9 32
28 10 27
28 11 53
28 12 10
28 13 3
28 14 45
28 15 31
28 16 13
28 17 12
28 18 26
28 19 49
28 20 18
28 21 25
28 22 31
28 23 39
28 24 32
28 25 11
28 26 46
28 27 6
29 0 28
29 1 14
29 2 9
29 3 37
29 4 43
29 5 37
29 6 24
29 7 8
29 8 38
29 9 35
29 10 1
29 11 11
29 12 23
29 13 32
29 14 49
29 15 43
29 16 45
29 17 14
29 18 45
29 19 11
29 20 47
29 21 40
29 22 46
29 23 45
29 24 2
29 25 31
29 26 38
29 27 31
29 28 3
30 0 3
30 1 46
30 2 34
30 3 40
30 4 47
30 5 11
30 6 2
30 7 17
30 8 44
30 9 3
30 10 32
30 11 39
30 12 20
30 13 16
30 14 46
30 15 14
30 16 10
30 17 22
30 18 17
30 19 44
30 20 37
30 21 33
30 22 43
30 23 48
30 24 42
30 25 45
30 26 16
30 27 22
30 28 3
30 29 3
31 0 45
31 1 23
31 2 21
31 3 46
31 4 45
31 5 49
31 6 22
31 7 47
31 8 1
31 9 34
31 10 43
31 11 51
31 12 11
31 13 1
31 14 19
31 15 20
31 16 16
31 17 44
31 18 40
31 19 37
31 20 48
31 21 32
31 22 52
31 23 36
31 24 22
31 25 15
31 26 5
31 27 27
31 28 27
31 29 34
31 30 33
32 0 21
32 1 31
32 2 20
32 3 52
32 4 8
32 5 20
32 6 46
32 7 28
32 8 16
32 9 32
32 10 6
32 11 13
32 12 46
32 13 51
32 14 11
32 15 9
32 16 46
32 17 20
32 18 25
32 19 45
32 20 14
32 21 8
32 22 7
32 23 43
32 24 40
32 25 3
32 26 52
32 27 30
32 28 40
32 29 50
32 30 35
32 31 32
33 0 15
33 1 35
33 2 13
33 3 35
33 4 51
33 5 18
33 6 24
33 7 44
33 8 47
33 9 8
33 10 34
33 11 43
33 12 25
33 13 30
33 14 18
33 15 41
33 16 17
33 17 5
33 18 50
33 19 3
33 20 32
33 21 24
33 22 2
33 23 37
33 24 2
33 25 35
33 26 12
33 27 3
33 28 32
33 29 10
33 30 25
33 31 30
33 32 18
34 0 24
34 1 30
34 2 8
34 3 36
34 4 8
34 5 50
34 6 38
34 7 35
34 8 18
34 9 4
34 10 50
34 11 37
34 12 8
34 13 8
34 14 16
34 15 23
34 16 22
34 17 42
34 18 38
34 19 34
34 20 48
34 21 2
34 22 41
34 23 23
34 24 44
34 25 41
34 26 5
34 27 26
34 28 36
34 29 19
34 30 6
34 31 24
34 32 35
34 33 9
35 0 45
35 1 11
35 2 14
35 3 13
35 4 1
35 5 26
35 6 45
35 7 22
35 8 41
35 9 3
35 10 8
35 11 19
35 12 43
35 13 22
35 14 1
35 15 26
35 16 37
35 17 42
35 18 1
35 19 3
35 20 31
35 21 49
35 22 28
35 23 11
35 24 41
35 25 28
35 26 26
35 27 13
35 28 40
35 29 8
35 30 7
35 31 28
35 32 31
35 33 10
35 34 51
36 0 10
36 1 47
36 2 26
36 3 7
36 4 8
36 5 38
36 6 44
36 7 52
36 8 48
36 9 8
36 10 8
36 11 5
36 12 46
36 13 13
36 14 26
36 15 30
36 16 34
36 17 45
36 18 39
36 19 49
36 20 11
36 21 21
36 22 42
36 23 6
36 24 51
36 25 30
36 26 41
36 27 32
36 28 5
36 29 22
36 30 17
36 31 9
36 32 44
36 33 30
36 34 9
36 35 15
37 0 27
37 1 25
37 2 24
37 3 47
37 4 14
37 5 34
37 6 30
37 7 6
37 8 13
37 9 35
37 10 14
37 11 16
37 12 8
37 13 12
37 14 40
37 15 10
37 16 47
37 17 20
37 18 34
37 19 12
37 20 25
37 21 4
37 22 47
37 23 24
37 24 25
37 25 21
37 26 31
37 27 10
37 28 37
37 29 7
37 30 40
37 31 39
37 32 38
37 33 31
37 34 40
37 35 38
37 36 41
38 0 48
38 1 46
38 2 30
38 3 46
38 4 11
38 5 7
38 6 40
38 7 7
38 8 8
38 9 35
38 10 12
38 11 50
38 12 49
38 13 48
38 14 28
38 15 11
38 16 51
38 17 24
38 18 29
38 19 41
38 20 21
38 21 30
38 22 27
38 23 5
38 24 15
38 25 27
38 26 5
38 27 19
38 28 20
38 29 10
38 30 36
38 31 43
38 32 35
38 33 46
38 34 47
38 35 3
38 36 42
38 37 44
39 0 3
39 1 27
39 2 29
39 3 18
39 4 27
39 5 6
39 6 49
39 7 15
39 8 25
39 9 19
39 10 49
39 11 10
39 12 53
39 13 47
39 14 43
39 15 41
39 16 30
39 17 22
39 18 7
39 19 52
39 20 46
39 21 31
39 22 38
39 23 11
39 24 8
39 25 7
39 26 25
39 27 13
39 28 2
39 29 31
39 30 40
39 31 9
39 32 35
39 33 47
39 34 37
39 35 5
39 36 43
39 37 16
39 38 32
40 0 27
40 1 53
40 2 5
40 3 18
40 4 41
40 5 47
40 6 41
40 7 21
40 8 44
40 9 28
40 10 17
40 11 2
40 12 16
40 13 16
40 14 21
40 15 38
40 16 24
40 17 23
40 18 9
40 19 30
40 20 42
40 21 24
40 22 45
40 23 38
40 24 10
40 25 10
40 26 47
40 27 49
40 28 48
40 29 3
40 30 51
40 31 23
40 32 38
40 33 26
40 34 47
40 35 10
40 36 11
40 37 8
40 38 34
40 39 3
41 0 45
41 1 7
41 2 10
41 3 15
41 4 24
41 5 8
41 6 53
41 7 30
41 8 7
41 9 29
41 10 14
41 11 29
41 12 39
41 13 39
41 14 16
41 15 16
41 16 31
41 17 8
41 18 18
41 19 24
41 20 43
41 21 52
41 22 17
41 23 43
41 24 39
41 25 17
41 26 44
41 27 39
41 28 1
41 29 14
41 30 23
41 31 31
41 32 32
41 33 20
41 34 10
41 35 49
41 36 26
41 37 20
41 38 52
41 39 18
41 40 10
42 0 1
42 1 2
42 2 16
42 3 1
42 4 24
42 5 31
42 6 50
42 7 46
42 8 39
42 9 36
42 10 6
42 11 4
42 12 2
42 13 36
42 14 47
42 15 14
42 16 44
42 17 44
42 18 17
42 19 33
42 20 5
42 21 46
42 22 26
42 23 49
42 24 20
42 25 38
42 26 29
42 27 53
42 28 5
42 29 35
42 30 39
42 31 36
42 32 34
42 33 29
42 34 32
42 35 30
42 36 50
42 37 48
42 38 35
42 39 38
42 40 33
42 41 5
43 0 10
43 1 29
43 2 7
43 3 37
43 4 18
43 5 12
43 6 53
43 7 50
43 8 10
43 9 28
43 10 34
43 11 50
43 12 40
43 13 49
43 14 3
43 15 36
43 16 5
43 17 9
43 18 11
43 19 20
43 20 46
43 21 1
43 22 15
43 23 34
43 24 4
43 25 30
43 26 4
43 27 16
43 28 42
43 29 13
43 30 41
43 31 49
43 32 11
43 33 48
43 34 19
43 35 36
43 36 10
43 37 5
43 38 14
43 39 35
43 40 13
43 41 36
43 42 44
44 0 2
44 1 30
44 2 14
44 3 3
44 4 33
44 5 31
44 6 11
44 7 11
44 8 38
44 9 2
44 10 14
44 11 35
44 12 15
44 13 45
44 14 40
44 15 2
44 16 46
44 17 47
44 18 13
44 19 9
44 20 46
44 21 34
44 22 49
44 23 46
44 24 44
44 25 26
44 26 5
44 27 15
44 28 9
44 29 43
44 30 35
44 31 16
44 32 16
44 33 11
44 34 24
44 35 22
44 36 12
44 37 48
44 38 30
44 39 3
44 40 44
44 41 31
44 42 18
44 43 5
45 0 37
45 1 21
45 2 37
45 3 4
45 4 5
45 5 21
45 6 28
45 7 30
45 8 15
45 9 41
45 10 43
45 11 31
45 12 30
45 13 13
45 14 25
45 15 41
45 16 33
45 17 22
45 18 5
45 19 8
45 20 48
45 21 41
45 22 9
45 23 20
45 24 19
45 25 35
45 26 13
45 27 46
45 28 38
45 29 28
45 30 24
45 31 18
45 32 43
45 33 16
45 34 4
45 35 20
45 36 8
45 37 24
45 38 9
45 39 22
45 40 26
45 41 21
45 42 23
45 43 52
45 44 42
46 0 1
46 1 46
46 2 10
46 3 25
46 4 35
46 5 43
46 6 40
46 7 16
46 8 49
46 9 25
46 10 10
46 11 31
46 12 45
46 13 5
46 14 37
46 15 26
46 16 26
46 17 12
46 18 16
46 19 21
46 20 1
46 21 51
46 22 39
46 23 8
46 24 39
46 25 41
46 26 24
46 27 1
46 28 37
46 29 34
46 30 50
46 31 9
46 32 46
46 33 28
46 34 32
46 35 36
46 36 44
46 37 10
46 38 32
46 39 29
46 40 37
46 41 6
46 42 44
46 43 15
46 44 37
46 45 53
47 0 20
47 1 36
47 2 21
47 3 5
47 4 46
47 5 25
47 6 37
47 7 6
47 8 21
47 9 20
47 10 6
47 11 44
47 12 34
47 13 50
47 14 50
47 15 28
47 16 22
47 17 20
47 18 3
47 19 33
47 20 23
47 21 5
47 22 45
47 23 22
47 24 48
47 25 30
47 26 18
47 27 43
47 28 49
47 29 50
47 30 27
47 31 16
47 32 14
47 33 25
47 34 16
47 35 27
47 36 36
47 37 25
47 38 49
47 39 11
47 40 46
47 41 35
47 42 32
47 43 48
47 44 46
47 45 3
47 46 17
48 0 36
48 1 18
48 2 25
48 3 46
48 4 23
48 5 13
48 6 33
48 7 51
48 8 40
48 9 31
48 10 21
48 11 1
48 12 31
48 13 17
48 14 30
48 15 15
48 16 52
48 17 53
48 18 2
48 19 5
48 20 12
48 21 49
48 22 32
48 23 30
48 24 11
48 25 32
48 26 34
48 27 51
48 28 51
48 29 39
48 30 16
48 31 35
48 32 28
48 33 16
48 34 3
48 35 16
48 36 44
48 37 26
48 38 29
48 39 27
48 40 47
48 41 47
48 42 28
48 43 31
48 44 50
48 45 4
48 46 43
48 47 35
49 0 50
49 1 17
49 2 43
49 3 22
49 4 36
49 5 3
49 6 5
49 7 23
49 8 30
49 9 47
49 10 51
49 11 33
49 12 35
49 13 19
49 14 49
49 15 16
49 16 31
49 17 21
49 18 35
49 19 51
49 20 16
49 21 20
49 22 48
49 23 43
49 24 8
49 25 14
49 26 8
49 27 24
49 28 12
49 29 5
49 30 19
49 31 32
49 32 19
49 33 46
49 34 38
49 35 14
49 36 6
49 37 36
49 38 28
49 39 11
49 40 28
49 41 28
49 42 35
49 43 22
49 44 32
49 45 9
49 46 43
49 47 44
49 48 37
50 0 50
50 1 51
50 2 43
50 3 25
50 4 30
50 5 31
50 6 42
50 7 41
50 8 7
50 9 24
50 10 16
50 11 46
50 12 51
50 13 6
50 14 11
50 15 46
50 16 46
50 17 26
50 18 51
50 19 53
50 20 12
50 21 1
50 22 5
50 23 23
50 24 38
50 25 20
50 26 15
50 27 34
50 28 33
50 29 40
50 30 41
50 31 22
50 32 18
50 33 5
50 34 47
50 35 11
50 36 51
50 37 41
50 38 48
50 39 13
50 40 33
50 41 45
50 42 46
50 43 39
50 44 39
50 45 31
50 46 26
50 47 51
50 48 3
50 49 53
51 0 40
51 1 13
51 2 43
51 3 32
51 4 36
51 5 52
51 6 39
51 7 37
51 8 11
51 9 8
51 10 3
51 11 42
51 12 31
51 13 10
51 14 42
51 15 49
51 16 8
51 17 53
51 18 30
51 19 9
51 20 45
51 21 30
51 22 22
51 23 19
51 24 39
51 25 14
51 26 38
51 27 6
51 28 10
51 29 7
51 30 18
51 31 23
51 32 40
51 33 24
51 34 51
51 35 23
51 36 37
51 37 27
51 38 44
51 39 18
51 40 46
51 41 15
51 42 23
51 43 20
51 44 11
51 45 35
51 46 5
51 47 18
51 48 14
51 49 11
51 50 9
52 0 13
52 1 17
52 2 25
52 3 24
52 4 43
52 5 7
52 6 48
52 7 12
52 8 7
52 9 25
52 10 15
52 11 32
52 12 35
52 13 31
52 14 16
52 15 24
52 16 8
52 17 43
52 18 14
52 19 46
52 20 30
52 21 24
52 22 17
52 23 7
52 24 39
52 25 1
52 26 2
52 27 25
52 28 27
52 29 17
52 30 17
52 31 9
52 32 30
52 33 45
52 34 44
52 35 41
52 36 8
52 37 36
52 38 18
52 39 20
52 40 26
52 41 42
52 42 48
52 43 29
52 44 25
52 45 16
52 46 38
52 47 1
52 48 4
52 49 19
52 50 39
52 51 13
53 0 17
53 1 25
53 2 47
53 3 36
53 4 8
53 5 25
53 6 12
53 7 15
53 8 8
53 9 37
53 10 17
53 11 21
53 12 3
53 13 30
53 14 41
53 15 15
53 16 37
53 17 12
53 18 36
53 19 46
53 20 37
53 21 34
53 22 24
53 23 22
53 24 48
53 25 2
53 26 12
53 27 12
53 28 28
53 29 10
53 30 45
53 31 31
53 32 35
53 33 28
53 34 12
53 35 35
53 36 12
53 37 2
53 38 11
53 39 45
53 40 48
53 41 41
53 42 44
53 43 43
53 44 14
53 45 52
53 46 7
53 47 29
53 48 26
53 49 30
53 50 48
53 51 43
53 52 14
54 0 18
54 1 29
54 2 42
54 3 23
54 4 46
54 5 10
54 6 8
54 7 7
54 8 22
54 9 20
54 10 30
54 11 47
54 12 3
54 13 29
54 14 20
54 15 8
54 16 45
54 17 19
54 18 10
54 19 25
54 20 40
54 21 29
54 22 17
54 23 36
54 24 39
54 25 32
54 26 28
54 27 26
54 28 13
54 29 2
54 30 20
54 31 47
54 32 42
54 33 15
54 34 19
54 35 19
54 36 29
54 37 8
54 38 13
54 39 3
54 40 9
54 41 2
54 42 33
54 43 49
54 44 10
54 45 14
54 46 34
54 47 53
54 48 28
54 49 32
54 50 46
54 51 1
54 52 22
54 53 20
55 0 32
55 1 1
55 2 24
55 3 6
55 4 20
55 5 48
55 6 19
55 7 22
55 8 40
55 9 45
55 10 15
55 11 29
55 12 38
55 13 2
55 14 18
55 15 1
55 16 4
55 17 18
55 18 25
55 19 51
55 20 47
55 21 32
55 22 22
55 23 15
55 24 32
55 25 1
55 26 52
55 27 42
55 28 39
55 29 21
55 30 50
55 31 45
55 32 43
55 33 22
55 34 23
55 35 53
55 36 16
55 37 24
55 38 16
55 39 3
55 40 42
55 41 9
55 42 17
55 43 13
55 44 10
55 45 7
55 46 41
55 47 24
55 48 6
55 49 5
55 50 48
55 51 45
55 52 40
55 53 48
55 54 26
56 0 13
56 1 29
56 2 48
56 3 10
56 4 52
56 5 38
56 6 24
56 7 34
56 8 15
56 9 22
56 10 43
56 11 26
56 12 22
56 13 12
56 14 36
56 15 31
56 16 46
56 17 44
56 18 2
56 19 14
56 20 32
56 21 25
56 22 51
56 23 21
56 24 2
56 25 28
56 26 48
56 27 24
56 28 17
56 29 47
56 30 10
56 31 7
56 32 47
56 33 33
56 34 3
56 35 49
56 36 34
56 37 30
56 38 14
56 39 40
56 40 8
56 41 52
56 42 11
56 43 39
56 44 27
56 45 33
56 46 10
56 47 33
56 48 50
56 49 27
56 50 48
56 51 15
56 52 23
56 53 32
56 54 38
56 55 31
57 0 36
57 1 49
57 2 52
57 3 14
57 4 7
57 5 42
57 6 34
57 7 44
57 8 13
57 9 31
57 10 48
57 11 34
57 12 2
57 13 37
57 14 25
57 15 13
57 16 18
57 17 47
57 18 48
57 19 18
57 20 39
57 21 16
57 22 51
57 23 22
57 24 45
57 25 26
57 26 52
57 27 1
57 28 26
57 29 30
57 30 43
57 31 18
57 32 43
57 33 10
57 34 29
57 35 25
57 36 28
57 37 41
57 38 20
57 39 35
57 40 1
57 41 39
57 42 9
57 43 7
57 44 22
57 45 51
57 46 30
57 47 31
57 48 20
57 49 11
57 50 45
57 51 16
57 52 9
57 53 11
57 54 32
57 55 27
57 56 51
58 0 16
58 1 17
58 2 21
58 3 34
58 4 12
58 5 4
58 6 2
58 7 36
58 8 12
58 9 3
58 10 48
58 11 26
58 12 32
58 13 43
58 14 51
58 15 40
58 16 27
58 17 6
58 18 21
58 19 19
58 20 18
58 21 5
58 22 27
58 23 42
58 24 19
58 25 43
58 26 14
58 27 40
58 28 8
58 29 36
58 30 30
58 31 32
58 32 3
58 33 13
58 34 23
58 35 12
58 36 52
58 37 7
58 38 12
58 39 33
58 40 40
58 41 26
58 42 51
58 43 53
58 44 18
58 45 49
58 46 13
58 47 11
58 48 21
58 49 47
58 50 22
58 51 1
58 52 47
58 53 53
58 54 43
58 55 20
58 56 2
58 57 43
59 0 13
59 1 33
59 2 34
59 3 49
59 4 17
59 5 26
59 6 15
59 7 27
59 8 52
59 9 16
59 10 32
59 11 31
59 12 22
59 13 23
59 14 4
59 15 35
59 16 14
59 17 17
59 18 6
59 19 31
59 20 47
59 21 30
59 22 35
59 23 40
59 24 47
59 25 23
59 26 18
59 27 49
59 28 8
59 29 22
59 30 48
59 31 14
59 32 27
59 33 14
59 34 32
59 35 31
59 36 16
59 37 48
59 38 37
59 39 38
59 40 29
59 41 49
59 42 3
59 43 22
59 44 43
59 45 26
59 46 48
59 47 24
59 48 31
59 49 19
59 50 47
59 51 39
59 52 52
59 53 42
59 54 8
59 55 21
59 56 1
59 57 43
59 58 53
60 0 23
60 1 41
60 2 53
60 3 18
60 4 19
60 5 13
60 6 52
60 7 14
60 8 36
60 9 29
60 10 1
60 11 51
60 12 24
60 13 2
60 14 25
60 15 11
60 16 6
60 17 9
60 18 10
60 19 2
60 20 8
60 21 28
60 22 43
60 23 15
60 24 40
60 25 2
60 26 45
60 27 3
60 28 10
60 29 20
60 30 38
60 31 27
60 32 18
60 33 19
60 34 19
60 35 18
60 36 14
60 37 21
60 38 1
60 39 43
60 40 14
60 41 26
60 42 9
60 43 25
60 44 37
60 45 28
60 46 47
60 47 33
60 48 5
60 49 29
60 50 7
60 51 15
60 52 35
60 53 18
60 54 30
60 55 15
60 56 38
60 57 43
60 58 52
60 59 36
61 0 25
61 1 30
61 2 26
61 3 32
61 4 50
61 5 40
61 6 3
61 7 9
61 8 26
61 9 24
61 10 50
61 11 13
61 12 38
61 13 37
61 14 6
61 15 9
61 16 1
61 17 8
61 18 50
61 19 21
61 20 47
61 21 1
61 22 23
61 23 7
61 24 46
61 25 35
61 26 49
61 27 6
61 28 35
61 29 5
61 30 4
61 31 15
61 32 46
61 33 3
61 34 25
61 35 47
61 36 19
61 37 41
61 38 18
61 39 11
61 40 4
61 41 11
61 42 44
61 43 9
61 44 3
61 45 33
61 46 19
61 47 15
61 48 46
61 49 38
61 50 29
61 51 48
61 52 27
61 53 30
61 54 53
61 55 29
61 56 44
61 57 21
61 58 46
61 59 49
61 60 47
62 0 25
62 1 43
62 2 40
62 3 29
62 4 2
62 5 13
62 6 36
62 7 41
62 8 52
62 9 18
62 10 42
62 11 51
62 12 30
62 13 36
62 14 28
62 15 11
62 16 22
62 17 21
62 18 7
62 19 48
62 20 32
62 21 4
62 22 27
62 23 35
62 24 43
62 25 44
62 26 45
62 27 8
62 28 21
62 29 20
62 30 35
62 31 10
62 32 6
62 33 5
62 34 28
62 35 23
62 36 2
62 37 51
62 38 36
62 39 39
62 40 26
62 41 25
62 42 44
62 43 10
62 44 16
62 45 30
62 46 23
62 47 11
62 48 37
62 49 3
62 50 47
62 51 14
62 52 28
62 53 28
62 54 28
62 55 53
62 56 41
62 57 13
62 58 17
62 59 10
62 60 14
62 61 39
